8528
50, 20, 23, 18, 3, 41, 8, 9, 10, 19, 45, 32, 49, 36, 35, 34, 39, 40, 48, 24, 5, 6, 4, 25, 46, 37, 38, 15, 43, 33, 51, 12, 11, 52, 14, 13, 27, 28, 26, 47, 29, 16, 44, 1, 22, 31, 21, 17, 7, 2, 42, 30
